Version identifier: 22.1.1.0 | 2022-11-28 | 9160aff4d
CPXPARAM_ClockType                               1
CPXPARAM_Read_DataCheck                          1
CPXPARAM_Threads                                 1
CPXPARAM_TimeLimit                               7200
CPXPARAM_MIP_Tolerances_AbsMIPGap                0
CPXPARAM_MIP_Tolerances_MIPGap                   0
CPXPARAM_MIP_Tolerances_Integrality              0
Tried aggregator 5 times.
MIP Presolve eliminated 6113 rows and 2495 columns.
MIP Presolve modified 1876 coefficients.
Aggregator did 693 substitutions.
Reduced MIP has 1983 rows, 1217 columns, and 5582 nonzeros.
Reduced MIP has 1217 binaries, 0 generals, 0 SOSs, and 0 indicators.
Presolve time = 0.02 sec. (14.77 ticks)
Found incumbent of value -774.000000 after 0.03 sec. (20.99 ticks)
Probing time = 0.00 sec. (3.30 ticks)
Tried aggregator 1 time.
Detecting symmetries...
MIP Presolve eliminated 9 rows and 6 columns.
MIP Presolve modified 2 coefficients.
Reduced MIP has 1974 rows, 1211 columns, and 5555 nonzeros.
Reduced MIP has 1211 binaries, 0 generals, 0 SOSs, and 0 indicators.
Presolve time = 0.01 sec. (6.11 ticks)
Probing time = 0.00 sec. (3.03 ticks)
Clique table members: 4039.
MIP emphasis: balance optimality and feasibility.
MIP search method: dynamic search.
Parallel mode: none, using 1 thread.
Root relaxation solution time = 0.00 sec. (7.18 ticks)

        Nodes                                         Cuts/
   Node  Left     Objective  IInf  Best Integer    Best Bound    ItCnt     Gap

*     0+    0                         -766.0000      203.0000           126.50%
*     0     0      integral     0      203.0000      203.0000      489    0.00%
Elapsed time = 0.06 sec. (44.70 ticks, tree = 0.00 MB, solutions = 3)

Root node processing (before b&c):
  Real time             =    0.07 sec. (44.90 ticks)
Sequential b&c:
  Real time             =    0.00 sec. (0.00 ticks)
                          ------------
Total (root+branch&cut) =    0.07 sec. (44.90 ticks)
Solution is feasible.

---------------------
@@@ MIP_optimal
>>> Benchmark mc2024_track1_181.cnf k 2 OPT 203 TimeCost 0.8084709644317627 TimeSolve 0.07114839553833008 TimeRead 0.0075800418853759766 TimeTrans 0.7297425270080566
